# Objective value = 3.0324095026484133e+02
x[0] 1
x[1] 1
x[2] 1
x[3] 1
x[4] 0
x[5] 1
x[6] 0
x[7] 1
x[8] 0
x[9] 0
x[10] 0
x[11] 1
x[12] 1
x[13] 1
x[14] 1
x[15] 1
x[16] 0
x[17] 0
x[18] 0
x[19] 1
x[20] 0
x[21] 0
x[22] 1
x[23] 0
x[24] 1
x[25] 0
x[26] 1
x[27] 1
x[28] 1
x[29] 0
x[30] 1
x[31] 0
x[32] 0
x[33] 1
x[34] 1
x[35] 0
x[36] 0
x[37] 1
x[38] 0
x[39] 0
x[40] 1
x[41] 1
x[42] 0
x[43] 1
x[44] 1
x[45] 1
x[46] 0
x[47] 0
x[48] 1
x[49] 0
x[50] 1
x[51] 0
x[52] 1
x[53] 0
x[54] 0
x[55] 0
x[56] 1
x[57] 0
x[58] 1
x[59] 0
x[60] 0
x[61] 0
x[62] 1
x[63] 0
x[64] 0
x[65] 0
x[66] 0
x[67] 1
x[68] 1
x[69] 0
x[70] 0
x[71] 1
x[72] 1
x[73] 0
x[74] 0
x[75] 1
x[76] 0
x[77] 0
x[78] 1
x[79] 1
x[80] 1
x[81] 1
x[82] 1
x[83] 1
x[84] 1
x[85] 1
x[86] 1
x[87] 0
x[88] 1
x[89] 0
x[90] 0
x[91] 0
x[92] 0
x[93] 0
x[94] 1
x[95] 0
x[96] 1
x[97] 1
x[98] 1
x[99] 1
x[100] 1
x[101] 1
x[102] 0
x[103] 0
x[104] 1
x[105] 0
x[106] 1
x[107] 1
x[108] 0
x[109] 1
x[110] 0
x[111] 0
x[112] 1
x[113] 0
x[114] 1
x[115] 0
x[116] 1
x[117] 0
x[118] 0
x[119] 0
x[120] 0
x[121] 1
x[122] 1
x[123] 1
x[124] 0
x[125] 1
x[126] 0
x[127] 0
x[128] 1
x[129] 1
x[130] 0
x[131] 1
x[132] 0
x[133] 1
x[134] 0
x[135] 0
x[136] 0
x[137] 1
x[138] 1
x[139] 0
x[140] 1
x[141] 0
x[142] 1
x[143] 0
x[144] 0
x[145] 1
x[146] 1
x[147] 0
x[148] 1
x[149] 1
x[150] 1
x[151] 1
x[152] 1
x[153] 1
x[154] 0
x[155] 0
x[156] 0
x[157] 0
x[158] 0
x[159] 1
x[160] 0
x[161] 0
x[162] 1
x[163] 1
x[164] 0
x[165] 0
x[166] 0
x[167] 0
x[168] 1
x[169] 1
x[170] 0
x[171] 1
x[172] 1
x[173] 0
x[174] 1
x[175] 0
x[176] 0
x[177] 1
x[178] 1
x[179] 1
x[180] 1
x[181] 0
x[182] 0
x[183] 0
x[184] 0
x[185] 0
x[186] 0
x[187] 1
x[188] 1
x[189] 1
x[190] 1
x[191] 1
x[192] 0
x[193] 1
x[194] 1
x[195] 1
x[196] 1
x[197] 1
x[198] 0
x[199] 1
x[200] 0
x[201] 1
x[202] 1
x[203] 0
x[204] 1
x[205] 0
x[206] 1
x[207] 1
x[208] 0
x[209] 1
x[210] 0
x[211] 1
x[212] 0
x[213] 1
x[214] 0
x[215] 0
x[216] 0
x[217] 1
x[218] 1
x[219] 1
x[220] 1
x[221] 0
x[222] 0
x[223] 0
x[224] 1
x[225] 0
x[226] 1
x[227] 1
x[228] 0
x[229] 0
x[230] 0
x[231] 0
x[232] 0
x[233] 0
x[234] 0
x[235] 1
x[236] 1
x[237] 1
x[238] 1
x[239] 0
x[240] 1
x[241] 0
x[242] 1
x[243] 0
x[244] 1
x[245] 1
x[246] 0
x[247] 1
x[248] 1
x[249] 1
x[250] 1
x[251] 1
x[252] 0
x[253] 0
x[254] 0
x[255] 1
x[256] 1
x[257] 1
x[258] 0
x[259] 1
x[260] 0
x[261] 0
x[262] 1
x[263] 1
x[264] 1
x[265] 0
x[266] 1
x[267] 0
x[268] 1
x[269] 1
x[270] 1
x[271] 1
x[272] 0
x[273] 1
x[274] 1
x[275] 0
x[276] 0
x[277] 0
x[278] 1
x[279] 1
x[280] 0
x[281] 1
x[282] 1
x[283] 0
x[284] 1
x[285] 0
x[286] 1
x[287] 1
x[288] 0
x[289] 1
x[290] 0
x[291] 0
x[292] 0
x[293] 0
x[294] 0
x[295] 1
x[296] 1
x[297] 0
x[298] 0
x[299] 0
x[300] 1
x[301] 0
x[302] 1
x[303] 0
x[304] 1
x[305] 1
x[306] 0
x[307] 1
x[308] 0
x[309] 1
x[310] 1
x[311] 0
x[312] 1
x[313] 0
x[314] 0
x[315] 0
x[316] 1
x[317] 0
x[318] 1
x[319] 0
x[320] 1
x[321] 1
x[322] 0
x[323] 1
x[324] 0
x[325] 0
x[326] 1
x[327] 0
x[328] 1
x[329] 0
x[330] 0
x[331] 1
x[332] 1
x[333] 0
x[334] 0
x[335] 0
x[336] 0
x[337] 1
x[338] 0
x[339] 1
x[340] 0
x[341] 0
x[342] 1
x[343] 0
x[344] 1
x[345] 0
x[346] 0
x[347] 1
x[348] 1
x[349] 0
x[350] 1
x[351] 1
x[352] 1
x[353] 0
x[354] 1
x[355] 0
x[356] 1
x[357] 0
x[358] 0
x[359] 1
x[360] 1
x[361] 1
x[362] 1
x[363] 1
x[364] 1
x[365] 0
x[366] 1
x[367] 1
x[368] 0
x[369] 0
x[370] 0
x[371] 0
x[372] 1
x[373] 1
x[374] 1
x[375] 0
x[376] 0
x[377] 0
x[378] 1
x[379] 0
x[380] 1
x[381] 1
x[382] 1
x[383] 1
x[384] 0
x[385] 0
x[386] 1
x[387] 1
x[388] 1
x[389] 0
x[390] 0
x[391] 1
x[392] 0
x[393] 0
x[394] 1
x[395] 1
x[396] 0
x[397] 0
x[398] 0
x[399] 0
x[400] 1
x[401] 0
x[402] 1
x[403] 1
x[404] 0
x[405] 0
x[406] 1
x[407] 1
x[408] 1
x[409] 1
x[410] 1
x[411] 0
x[412] 1
x[413] 1
x[414] 0
x[415] 1
x[416] 0
x[417] 1
x[418] 1
x[419] 0
x[420] 0
x[421] 0
x[422] 0
x[423] 0
x[424] 1
x[425] 1
x[426] 0
x[427] 1
x[428] 1
x[429] 0
x[430] 1
x[431] 1
x[432] 1
x[433] 0
x[434] 0
x[435] 0
x[436] 0
x[437] 1
x[438] 1
x[439] 1
x[440] 1
x[441] 0
x[442] 1
x[443] 0
x[444] 0
x[445] 0
x[446] 1
x[447] 1
x[448] 0
x[449] 0
x[450] 0
x[451] 1
x[452] 1
x[453] 0
x[454] 0
x[455] 1
x[456] 1
x[457] 1
x[458] 0
x[459] 0
x[460] 1
x[461] 0
x[462] 0
x[463] 1
x[464] 0
x[465] 0
x[466] 0
x[467] 0
x[468] 0
x[469] 0
x[470] 1
x[471] 1
x[472] 0
x[473] 0
x[474] 1
x[475] 0
x[476] 1
x[477] 1
x[478] 1
x[479] 1
x[480] 0
x[481] 1
x[482] 1
x[483] 0
x[484] 1
x[485] 1
x[486] 0
x[487] 1
x[488] 1
x[489] 1
x[490] 1
x[491] 0
x[492] 1
x[493] 0
x[494] 0
x[495] 0
x[496] 0
x[497] 1
x[498] 1
x[499] 1
x[500] 1
x[501] 1
x[502] 0
x[503] 1
x[504] 1
x[505] 0
x[506] 1
x[507] 0
x[508] 1
x[509] 0
x[510] 0
x[511] 0
x[512] 0
x[513] 0
x[514] 1
x[515] 0
x[516] 1
x[517] 0
x[518] 1
x[519] 1
x[520] 0
x[521] 1
x[522] 0
x[523] 1
x[524] 0
x[525] 0
x[526] 0
x[527] 0
x[528] 1
x[529] 0
x[530] 0
x[531] 0
x[532] 1
x[533] 0
x[534] 1
x[535] 1
x[536] 0
x[537] 0
x[538] 1
x[539] 0
x[540] 1
x[541] 0
x[542] 1
x[543] 0
x[544] 1
x[545] 0
x[546] 1
x[547] 0
x[548] 0
x[549] 0
x[550] 1
x[551] 1
x[552] 1
x[553] 1
x[554] 0
x[555] 1
x[556] 0
x[557] 0
x[558] 0
x[559] 0
x[560] 0
x[561] 0
x[562] 1
x[563] 0
x[564] 0
x[565] 0
x[566] 0
x[567] 1
x[568] 1
x[569] 0
x[570] 1
x[571] 1
x[572] 1
x[573] 1
x[574] 0
x[575] 1
x[576] 0
x[577] 1
x[578] 0
x[579] 1
x[580] 0
x[581] 1
x[582] 0
x[583] 0
x[584] 1
x[585] 1
x[586] 0
x[587] 0
x[588] 1
x[589] 0
x[590] 0
x[591] 0
x[592] 1
x[593] 0
x[594] 0
x[595] 1
x[596] 1
x[597] 1
x[598] 1
x[599] 0
x[600] 1
x[601] 1
x[602] 1
x[603] 0
x[604] 0
x[605] 1
x[606] 0
x[607] 0
x[608] 0
x[609] 1
x[610] 1
x[611] 0
x[612] 1
x[613] 0
x[614] 0
x[615] 1
x[616] 1
x[617] 1
x[618] 0
x[619] 1
x[620] 0
x[621] 1
x[622] 1
x[623] 0
x[624] 1
x[625] 1
x[626] 0
x[627] 0
x[628] 0
x[629] 1
x[630] 1
x[631] 1
x[632] 1
x[633] 1
x[634] 0
x[635] 0
x[636] 0
x[637] 0
x[638] 0
x[639] 0
x[640] 1
x[641] 1
x[642] 0
x[643] 0
x[644] 0
x[645] 0
x[646] 1
x[647] 1
x[648] 0
x[649] 1
x[650] 0
x[651] 0
x[652] 0
x[653] 1
x[654] 0
x[655] 0
x[656] 1
x[657] 0
x[658] 1
x[659] 0
x[660] 0
x[661] 0
x[662] 0
x[663] 0
x[664] 1
x[665] 0
x[666] 0
x[667] 1
x[668] 1
x[669] 1
x[670] 1
x[671] 0
x[672] 0
x[673] 0
x[674] 0
x[675] 0
x[676] 0
x[677] 0
x[678] 1
x[679] 0
x[680] 0
x[681] 0
x[682] 1
x[683] 0
x[684] 0
x[685] 0
x[686] 1
x[687] 0
x[688] 0
x[689] 0
x[690] 0
x[691] 0
x[692] 1
x[693] 0
x[694] 1
x[695] 0
x[696] 1
x[697] 1
x[698] 1
x[699] 1
x[700] 1
x[701] 1
x[702] 0
x[703] 0
x[704] 0
x[705] 1
x[706] 1
x[707] 1
x[708] 1
x[709] 0
x[710] 1
x[711] 1
x[712] 0
x[713] 1
x[714] 1
x[715] 0
x[716] 1
x[717] 1
x[718] 1
x[719] 1
x[720] 1
x[721] 0
x[722] 1
x[723] 0
x[724] 1
x[725] 0
x[726] 0
x[727] 1
x[728] 1
x[729] 0
x[730] 1
x[731] 0
x[732] 0
x[733] 0
x[734] 1
x[735] 0
x[736] 0
x[737] 1
x[738] 1
x[739] 0
x[740] 0
x[741] 0
x[742] 1
x[743] 0
x[744] 0
x[745] 0
x[746] 1
x[747] 0
x[748] 0
x[749] 0
x[750] 0
x[751] 0
x[752] 1
x[753] 0
x[754] 1
x[755] 1
x[756] 0
x[757] 0
x[758] 1
x[759] 0
x[760] 0
x[761] 1
x[762] 0
x[763] 1
x[764] 1
x[765] 0
x[766] 0
x[767] 1
x[768] 0
x[769] 1
x[770] 1
x[771] 0
x[772] 0
x[773] 1
x[774] 0
x[775] 0
x[776] 0
x[777] 0
x[778] 1
x[779] 0
x[780] 0
x[781] 0
x[782] 0
x[783] 1
x[784] 1
x[785] 1
x[786] 0
x[787] 0
x[788] 1
x[789] 0
x[790] 1
x[791] 1
x[792] 0
x[793] 0
x[794] 0
x[795] 1
x[796] 0
x[797] 0
x[798] 1
x[799] 0
x[800] 0
x[801] 1
x[802] 0
x[803] 1
x[804] 1
x[805] 1
x[806] 1
x[807] 1
x[808] 1
x[809] 0
x[810] 0
x[811] 0
x[812] 0
x[813] 0
x[814] 0
x[815] 0
x[816] 1
x[817] 1
x[818] 0
x[819] 1
x[820] 0
x[821] 0
x[822] 0
x[823] 1
x[824] 0
x[825] 0
x[826] 0
x[827] 1
x[828] 0
x[829] 1
x[830] 1
x[831] 0
x[832] 1
x[833] 1
x[834] 0
x[835] 0
x[836] 0
x[837] 0
x[838] 0
x[839] 0
x[840] 0
x[841] 0
x[842] 1
x[843] 1
x[844] 0
x[845] 0
x[846] 1
x[847] 0
x[848] 0
x[849] 1
x[850] 0
x[851] 0
x[852] 0
x[853] 1
x[854] 0
x[855] 1
x[856] 1
x[857] 1
x[858] 1
x[859] 1
x[860] 1
x[861] 1
x[862] 1
x[863] 1
x[864] 0
x[865] 0
x[866] 1
x[867] 0
x[868] 1
x[869] 0
x[870] 0
x[871] 1
x[872] 0
x[873] 1
x[874] 0
x[875] 1
x[876] 1
x[877] 0
x[878] 0
x[879] 0
x[880] 0
x[881] 0
x[882] 0
x[883] 1
x[884] 1
x[885] 0
x[886] 0
x[887] 1
x[888] 1
x[889] 0
x[890] 1
x[891] 0
x[892] 0
x[893] 1
x[894] 0
x[895] 1
x[896] 1
x[897] 0
x[898] 0
x[899] 1
x[900] 1
x[901] 0
x[902] 1
x[903] 0
x[904] 0
x[905] 0
x[906] 0
x[907] 0
x[908] 1
x[909] 1
x[910] 1
x[911] 1
x[912] 0
x[913] 0
x[914] 1
x[915] 1
x[916] 0
x[917] 1
x[918] 1
x[919] 0
x[920] 0
x[921] 1
x[922] 0
x[923] 1
x[924] 1
x[925] 0
x[926] 0
x[927] 0
x[928] 0
x[929] 1
x[930] 0
x[931] 1
x[932] 0
x[933] 1
x[934] 1
x[935] 0
x[936] 1
x[937] 1
x[938] 0
x[939] 0
x[940] 0
x[941] 0
x[942] 1
x[943] 1
x[944] 0
x[945] 0
x[946] 0
x[947] 0
x[948] 0
x[949] 1
x[950] 0
x[951] 1
x[952] 0
x[953] 1
x[954] 0
x[955] 0
x[956] 0
x[957] 1
x[958] 0
x[959] 1
x[960] 0
x[961] 1
x[962] 0
x[963] 0
x[964] 1
x[965] 0
x[966] 1
x[967] 1
x[968] 1
x[969] 0
x[970] 1
x[971] 0
x[972] 1
x[973] 0
x[974] 0
x[975] 0
x[976] 1
x[977] 0
x[978] 1
x[979] 0
x[980] 1
x[981] 1
x[982] 0
x[983] 0
x[984] 1
x[985] 1
x[986] 0
x[987] 0
x[988] 0
x[989] 1
x[990] 1
x[991] 1
x[992] 1
x[993] 1
x[994] 0
x[995] 0
x[996] 1
x[997] 0
x[998] 0
x[999] 1
